Traveling Salesman Problem/TSP_generados/Aleatorio1621104399_19.tsp
NAME: Aleatorio1621104399_19.tsp
COMMENT: Randomly generated scenario
TYPE: TSP
DIMENSION: 19
EDGE_WEIGHT_TYPE: ATT
NODE_COORD_SECTION
1 27.18 41.73
2 41.88 5.15
3 45.18 29.12
4 2.42 0.22
5 29.87 46.55
6 48.42 32.56
7 48.77 24.45
8 26.31 28.82
9 33.67 21.06
10 28.46 30.09
11 46.78 25.47
12 19.62 26.26
13 7.69 17.94
14 49.2 10.71
15 26.98 20.78
16 21.67 24.03
17 1.62 32.8
18 39.79 34.04
19 42.38 10.74
