Traveling Salesman Problem/TSP_generados/Aleatorio1621104399_19.opt.tour
NAME: Aleatorio1621104399_19.opt.tour
COMMENT: Optimal solution for Aleatorio1621104399_19 (199.56530105217652)
TYPE: TOUR
DIMENSION: 19
TOUR_SECTION
1 10 8 16 12 17 13 4 15 9 19 2 14 7 11 3 6 18 5
-1
EOF
